Be  H                                   
   1.0000000000000000     
    10.0000000000000000    0.0000000000000000    0.0000000000000000
     0.0000000000000000   10.0000000000000000    0.0000000000000000
     0.0000000000000000    0.0000000000000000   11.3482699999999994
   Be   H 
     1     1
Direct
  0.5000000000000000  0.5000000000000000  0.5101777627779356
  0.5000000000000000  0.5000000000000000  0.4898222372220644

  0.00000000E+00  0.00000000E+00  0.00000000E+00
  0.00000000E+00  0.00000000E+00  0.00000000E+00
