Be  H                                   
   1.0000000000000000     
    10.0000000000000000    0.0000000000000000    0.0000000000000000
     0.0000000000000000   10.0000000000000000    0.0000000000000000
     0.0000000000000000    0.0000000000000000   11.3482699999999994
   Be   H 
     1     1
Direct
  0.5000000000000000  0.5000000000000000  0.6718323585885813
  0.5000000000000000  0.5000000000000000  0.3281676414114187

  0.00000000E+00  0.00000000E+00  0.00000000E+00
  0.00000000E+00  0.00000000E+00  0.00000000E+00
