INCAR created by Atomic Simulation Environment
 ENCUT = 400.000000
 SIGMA = 0.010000
 EDIFF = 1.00e-06
 ALGO = Normal
 PREC = Normal
 IBRION = -1
 ICHARG = 2
 ISMEAR = 0
 ISTART = 0
 ISYM = 0
 LORBIT = 11
 NELM = 100
 NELMIN = 4
 NPAR = 1
 NSW = 0
 LCHARG = .FALSE.
 LWAVE = .FALSE.
 LREAL = Auto
 ISPIN = 2
 MAGMOM = 1*0.8000 1*0.2000 
