Be  H 
 1.0000000000000000
    10.0000000000000000    0.0000000000000000    0.0000000000000000
     0.0000000000000000   10.0000000000000000    0.0000000000000000
     0.0000000000000000    0.0000000000000000   11.3482699999999994
   1   1
Cartesian
  5.0000000000000000  5.0000000000000000  5.8046350000000002
  5.0000000000000000  5.0000000000000000  5.5436350000000001
