BeH2                                    
   1.0000000000000000     
     3.3250000477000001    0.0000000000000000    0.0000000000000000
     0.0000000000000000    3.3250000477000001    0.0000000000000000
     0.0000000000000000    0.0000000000000000    3.3250000477000001
   H    Be
     2     1
Direct
  0.8361780051584679  0.5000000000451124  0.5000000000451124
  0.1638219651573233  0.5000000000451124  0.5000000000451124
  0.5000000000451124  0.5000000000451124  0.5000000000451124

  0.00000000E+00  0.00000000E+00  0.00000000E+00
  0.00000000E+00  0.00000000E+00  0.00000000E+00
  0.00000000E+00  0.00000000E+00  0.00000000E+00
