BeH2                                    
   1.0000000000000000     
    10.3833947305235661    0.0000000000000000    0.0000000000000000
     0.0000000000000000   10.2622808695069967   -0.0000000000000000
    -0.0000000000000000   -0.0000000000000000   10.2622808695069967
   H    Be
     2     1
Direct
  0.2901604511167190  0.1610169507331207  0.1610169507331207
  0.0318734407611532  0.1610169507331207  0.1610169507331207
  0.1610169507331207  0.1610169507331207  0.1610169507331207

  0.00000000E+00  0.00000000E+00  0.00000000E+00
  0.00000000E+00  0.00000000E+00  0.00000000E+00
  0.00000000E+00  0.00000000E+00  0.00000000E+00
