BeH2                                    
   1.0000000000000000     
     6.3485659122763165    0.0000000000000000    0.0000000000000000
     0.0000000000000000    2.6603958286902456    0.0000000000000000
     0.0000000000000000    0.0000000000000000    2.6603958286902456
   H    Be
     2     1
Direct
  0.7741733110843988  0.5000000000451124  0.5000000000451124
  0.2258266592313923  0.5000000000451124  0.5000000000451124
  0.5000000000451124  0.5000000000451124  0.5000000000451124

  0.00000000E+00  0.00000000E+00  0.00000000E+00
  0.00000000E+00  0.00000000E+00  0.00000000E+00
  0.00000000E+00  0.00000000E+00  0.00000000E+00
