BeH2
1.0
        10.3250000477         0.0000000000         0.0000000000
        0.0000000000         10.3250000477         0.0000000000
        0.0000000000         0.0000000000         10.3250000477
    H   Be
    2    1
Cartesian
     2.992499964         1.662500024         1.662500024
     0.332499985         1.662500024         1.662500024
     1.662500024         1.662500024         1.662500024

