BeH2 centered
1.0
       10.3250000477         0.0000000000         0.0000000000
        0.0000000000         10.3250000477         0.0000000000
        0.0000000000         0.0000000000         10.3250000477
    H   Be
    2    1
Cartesian
     6.492499964         5.162500024         5.162500024
     3.832499985         5.162500024         5.162500024
     5.162500024         5.162500024         5.162500024
