INCAR created by Atomic Simulation Environment
 ENCUT = 200.000000
 SIGMA = 0.100000
 EDIFF = 1.00e-04
 PREC = Normal
 IBRION = -1
 ICHARG = 2
 ISIF = 2
 ISMEAR = 0
 ISTART = 0
 NSW = 0
 LCHARG = .FALSE.
 LWAVE = .FALSE.
 LREAL = Auto
