 H Be 
 1.0000000000000000
    10.0000000000000000    0.0000000000000000    0.0000000000000000
     0.0000000000000000   10.0000000000000000    0.0000000000000000
     0.0000000000000000    0.0000000000000000   10.0000000000000000
   2   1
Cartesian
  5.0000000000000000  5.0000000000000000  6.3300000000000001
  5.0000000000000000  5.0000000000000000  3.6699999999999999
  5.0000000000000000  5.0000000000000000  5.0000000000000000
