 H Be 
 1.0000000000000000
    20.0000000000000000    0.0000000000000000    0.0000000000000000
     0.0000000000000000   20.0000000000000000    0.0000000000000000
     0.0000000000000000    0.0000000000000000   20.0000000000000000
   2   1
Cartesian
 10.0000000000000000 10.0000000000000000 11.3300000000000001
 10.0000000000000000 10.0000000000000000  8.6699999999999999
 10.0000000000000000 10.0000000000000000 10.0000000000000000
