Be H                                    
   1.0000000000000000     
     1.8546836852333539    1.8546837900143114    0.0000000000000000
    -0.0000001047809576    3.7093688416443586   -0.0000000000000000
     0.0000000000000000   -0.0000000000000000    1.2740373570116330
   Be   H 
     1     1
Direct
 -0.0000000000000000  0.0000000000000000  0.0000000000000000
  0.0000000049999969  0.4999999002000024  0.4999995786999989

  0.00000000E+00  0.00000000E+00  0.00000000E+00
  0.00000000E+00  0.00000000E+00  0.00000000E+00
