Be H                                    
   1.0000000000000000     
     1.6032400000000000    1.6032400000000000    0.0000000000000000
    -0.0000000000000000    3.2064810000000001    0.0000000000000000
     0.0000000000000000    0.0000000000000000    2.2666819999999999
   Be   H 
     1     1
Direct
  0.0000000000000000  0.0000000000000000  0.0000000000000000
  0.0000000049999969  0.4999999002000024  0.4999995786999989

  0.00000000E+00  0.00000000E+00  0.00000000E+00
  0.00000000E+00  0.00000000E+00  0.00000000E+00
