Be H
 1.0
1.603240 1.603240 0.000000
-0.000000 3.206481 0.000000
0.000000 0.000000 2.266682
Be H
1 1
direct
 0.0000000000 0.0000000000 0.0000000000
 0.0000000050 0.4999999002 0.4999995787
