 H Be  H 
 1.0000000000000000
     5.0000000000000000    0.0000000000000000    0.0000000000000000
     0.0000000000000000    5.0000000000000000    0.0000000000000000
     0.0000000000000000    0.0000000000000000    5.0000000000000000
   1   1   1
Cartesian
  2.5000000000000000  2.5000000000000000  3.8300000000000001
  2.5000000000000000  2.5000000000000000  2.5000000000000000
  2.5000000000000000  2.5000000000000000  1.1699999999999999
